50
    1    34    31
    2    43    42
    3     8     6
    4    26    25
    5    17    14
    6    15    13
    7    25    25
    8    42    41
    9    24    19
   10    15    12
   11    21    25
   12    39    37
   13    11    10
   14    34    36
   15     8     6
   16    47    46
   17    12     7
   18    19    18
   19    32    29
   20     3     8
   21     5     1
   22     3     3
   23    34    38
   24    48    50
   25    31    32
   26    20    20
   27    28    24
   28    11     7
   29    19    15
   30    47    47
   31    17    19
   32    24    27
   33    38    35
   34    34    35
   35    10     6
   36    11    15
   37    45    48
   38    19    14
   39     1     2
   40    34    30
   41     2     3
   42    17    13
   43    51    48
   44     5     9
   45    20    25
   46    11     6
   47    26    21
   48    17    15
   49    32    31
   50     1     2
181
